results_rootrelaxation/bin012_080_026.srr.sol
solution status: optimal solution found
objective value:                                   16
_var460_                            0.139303482587066 	(obj:3)
_var699_                            0.303482587064677 	(obj:0)
_var734_                            0.129353233830846 	(obj:1)
_var762_                            0.318407960199005 	(obj:1)
_var774_                            0.323383084577113 	(obj:1)
_var784_                           0.0149253731343297 	(obj:0)
_var785_                            0.159203980099502 	(obj:2)
_var787_                            0.203980099502488 	(obj:2)
_var788_                            0.343283582089553 	(obj:3)
_var797_                             0.18407960199005 	(obj:1)
_var803_                           0.0199004975124379 	(obj:2)
_var811_                            0.124378109452737 	(obj:2)
_var818_                            0.139303482587065 	(obj:3)
_var823_                           0.0348258706467672 	(obj:3)
_var825_                          0.00497512437810976 	(obj:3)
_var831_                            0.139303482587064 	(obj:0)
_var833_                            0.124378109452737 	(obj:1)
_var835_                            0.139303482587064 	(obj:1)
_var836_                             0.44776119402985 	(obj:2)
_var841_                             0.28358208955224 	(obj:0)
_var844_                            0.258706467661691 	(obj:2)
_var847_                            0.139303482587065 	(obj:1)
_var848_                            0.044776119402985 	(obj:3)
_var856_                            0.696517412935323 	(obj:0)
_var860_                            0.656716417910447 	(obj:2)
_var868_                            0.676616915422886 	(obj:1)
_var869_                            0.278606965174129 	(obj:1)
_var872_                             0.18407960199005 	(obj:1)
_var882_                            0.129353233830846 	(obj:1)
_var884_                          0.00497512437811035 	(obj:2)
_var886_                            0.019900497512438 	(obj:1)
_var888_                           0.0248756218905468 	(obj:1)
_var895_                            0.253731343283582 	(obj:1)
_var897_                            0.174129353233829 	(obj:1)
_var901_                             0.18407960199005 	(obj:1)
_var903_                            0.129353233830845 	(obj:2)
_var904_                            0.124378109452737 	(obj:3)
_var907_                            0.298507462686567 	(obj:1)
_var909_                            0.019900497512438 	(obj:3)
_var910_                            0.139303482587064 	(obj:2)
_var914_                            0.417910447761195 	(obj:2)
_var915_                           0.0895522388059702 	(obj:2)
_var918_                            0.139303482587064 	(obj:1)
_var919_                            0.159203980099502 	(obj:1)
_var920_                            0.497512437810945 	(obj:3)
_var922_                           0.0199004975124368 	(obj:2)
_var924_                            0.109452736318409 	(obj:0)
_var925_                            0.149253731343284 	(obj:1)
_var927_                            0.144278606965174 	(obj:0)
_var928_                          0.00497512437810974 	(obj:2)
_var929_                           0.0945273631840794 	(obj:1)
_var932_                            0.194029850746269 	(obj:2)
_var937_                           0.0945273631840794 	(obj:1)
_var938_                            0.114427860696517 	(obj:2)
_var939_                            0.139303482587064 	(obj:3)
_var942_                            0.258706467661691 	(obj:2)
_var944_                            0.139303482587064 	(obj:2)
_var947_                          0.00497512437810876 	(obj:2)
_var948_                            0.109452736318407 	(obj:4)
_var951_                            0.104477611940298 	(obj:1)
